CPXPARAM_Read_DataCheck                          1
Found incumbent of value 0.000000 after 0.00 sec. (0.03 ticks)
Tried aggregator 1 time.
MIP Presolve modified 1 coefficients.
Reduced MIP has 133 rows, 1010 columns, and 5034 nonzeros.
Reduced MIP has 1010 binaries, 0 generals, 0 SOSs, and 0 indicators.
Presolve time = 0.00 sec. (2.04 ticks)
Probing time = 0.00 sec. (2.46 ticks)
Tried aggregator 1 time.
Reduced MIP has 133 rows, 1010 columns, and 5034 nonzeros.
Reduced MIP has 1010 binaries, 0 generals, 0 SOSs, and 0 indicators.
Presolve time = 0.00 sec. (2.41 ticks)
Probing time = 0.02 sec. (2.44 ticks)
Clique table members: 3409.
MIP emphasis: balance optimality and feasibility.
MIP search method: dynamic search.
Parallel mode: deterministic, using up to 4 threads.
Root relaxation solution time = 0.00 sec. (3.56 ticks)

        Nodes                                         Cuts/
   Node  Left     Objective  IInf  Best Integer    Best Bound    ItCnt     Gap

*     0+    0                            0.0000     6085.0000              --- 
*     0+    0                         1021.0000     6085.0000           495.98%
*     0+    0                         1085.0000     6085.0000           460.83%
      0     0     1827.2700    10     1085.0000     1827.2700      219   68.41%
      0     0     1439.4689   183     1085.0000     Cuts: 140      470   32.67%
      0     0     1352.8328   210     1085.0000     Cuts: 136      662   24.69%
*     0+    0                         1259.0000     1352.8328             7.45%
      0     0     1322.1249   267     1259.0000     Cuts: 133      758    5.01%
      0     0     1310.2869   264     1259.0000      Cuts: 99      841    4.07%
      0     0     1306.3483   252     1259.0000      Cuts: 42      890    3.76%
      0     0     1305.3918   278     1259.0000      Cuts: 31      933    3.68%
      0     0     1301.9991   270     1259.0000      Cuts: 43     1004    3.42%
      0     0     1301.2835   258     1259.0000      Cuts: 28     1052    3.36%
*     0+    0                         1267.0000     1301.2835             2.71%
      0     0     1299.1367   241     1267.0000      Cuts: 12     1135    2.54%
*     0+    0                         1293.0000     1299.1367             0.47%

Repeating presolve.
Tried aggregator 1 time.
MIP Presolve eliminated 0 rows and 417 columns.
MIP Presolve modified 10 coefficients.
Reduced MIP has 133 rows, 593 columns, and 2949 nonzeros.
Reduced MIP has 593 binaries, 0 generals, 0 SOSs, and 0 indicators.
Presolve time = 0.00 sec. (1.39 ticks)
Probing time = 0.00 sec. (2.14 ticks)
Tried aggregator 1 time.
Reduced MIP has 133 rows, 593 columns, and 2949 nonzeros.
Reduced MIP has 593 binaries, 0 generals, 0 SOSs, and 0 indicators.
Presolve time = 0.00 sec. (1.43 ticks)
Represolve time = 0.00 sec. (9.23 ticks)
Probing time = 0.02 sec. (2.14 ticks)
Clique table members: 2064.
MIP emphasis: balance optimality and feasibility.
MIP search method: dynamic search.
Parallel mode: deterministic, using up to 4 threads.
Root relaxation solution time = 0.00 sec. (14.81 ticks)

        Nodes                                         Cuts/
   Node  Left     Objective  IInf  Best Integer    Best Bound    ItCnt     Gap

*     0+    0                         1293.0000     1299.1367             0.47%
      0     0     1299.1335   242     1293.0000     1299.1335     1652    0.47%
      0     0     1297.0449   207     1293.0000      Cuts: 34     1773    0.28%
*     0+    0                         1295.0000     1296.6315             0.13%
      0     0     1296.3333     4     1295.0000       Cuts: 5     1782    0.10%
*     0+    0                         1296.0000     1296.3333             0.03%
      0     0        cutoff           1296.0000     1296.0000     1782    0.00%
Elapsed time = 0.50 sec. (276.69 ticks, tree = 0.01 MB, solutions = 8)

Clique cuts applied:  130
Cover cuts applied:  18
Implied bound cuts applied:  19
Flow cuts applied:  4
Mixed integer rounding cuts applied:  5
Zero-half cuts applied:  9

Root node processing (before b&c):
  Real time             =    0.50 sec. (276.80 ticks)
Parallel b&c, 4 threads:
  Real time             =    0.00 sec. (0.00 ticks)
  Sync time (average)   =    0.00 sec.
  Wait time (average)   =    0.00 sec.
                          ------------
Total (root+branch&cut) =    0.50 sec. (276.80 ticks)
